;; Original file: adr_140.smt2
(set-logic HORN)
(declare-fun |add$unknown:3| (Int Int Int) Bool)
(declare-fun |sum$unknown:5| (Int Int) Bool)


(assert (forall ((|$V-reftype:12| Int)
         (|$alpha-1:x| Int)
         (|$alpha-2:y| Int))
  (=> (and (= |$V-reftype:12| (+ |$alpha-1:x| |$alpha-2:y|))
           true
           true)
      (|add$unknown:3| |$V-reftype:12| |$alpha-2:y| |$alpha-1:x|))))
(assert (forall ((|$knormal:2| Int)
         (|$alpha-3:n| Int)
         (|$knormal:1| Int)
         (|$V-reftype:16| Int)
         (|$knormal:7| Int)
         (|$knormal:3| Int))
  (let ((a!1 (and (= |$knormal:2| (- |$alpha-3:n| 1))
                  (= (not (= 0 |$knormal:1|)) (<= |$alpha-3:n| 0))
                  (= |$V-reftype:16| |$knormal:7|)
                  (not (not (= 0 |$knormal:1|)))
                  (|sum$unknown:5| |$knormal:3| |$knormal:2|)
                  true
                  (|add$unknown:3| |$knormal:7|
                                   |$knormal:3|
                                   |$alpha-3:n|))))
    (=> a!1 (|sum$unknown:5| |$V-reftype:16| |$alpha-3:n|)))))
(assert (forall ((|$knormal:2| Int)
         (|$alpha-3:n| Int)
         (|$knormal:1| Int)
         (|$knormal:3| Int))
  (let ((a!1 (and (= |$knormal:2| (- |$alpha-3:n| 1))
                  (= (not (= 0 |$knormal:1|)) (<= |$alpha-3:n| 0))
                  (not (not (= 0 |$knormal:1|)))
                  (|sum$unknown:5| |$knormal:3| |$knormal:2|)
                  true
                  (not true))))
    (=> a!1 true))))
(assert (forall ((|$knormal:2| Int)
         (|$alpha-3:n| Int)
         (|$knormal:1| Int)
         (|$knormal:3| Int))
  (let ((a!1 (and (= |$knormal:2| (- |$alpha-3:n| 1))
                  (= (not (= 0 |$knormal:1|)) (<= |$alpha-3:n| 0))
                  (not (not (= 0 |$knormal:1|)))
                  (|sum$unknown:5| |$knormal:3| |$knormal:2|)
                  true
                  (not true))))
    (=> a!1 true))))
(assert (forall ((|$knormal:1| Int)
         (|$alpha-3:n| Int)
         (|$V-reftype:14| Int))
  (let ((a!1 (and (= (not (= 0 |$knormal:1|)) (<= |$alpha-3:n| 0))
                  (= |$V-reftype:14| 0)
                  (not (= 0 |$knormal:1|))
                  true)))
    (=> a!1 (|sum$unknown:5| |$V-reftype:14| |$alpha-3:n|)))))
(assert (forall ((|$knormal:10| Int) (|$alpha-4:n| Int) (|$knormal:8| Int))
  (let ((a!1 (and (= (not (= 0 |$knormal:10|))
                     (<= |$alpha-4:n| |$knormal:8|))
                  (not (not (= 0 |$knormal:10|)))
                  (|sum$unknown:5| |$knormal:8| |$alpha-4:n|))))
    (=> a!1 false))))
(check-sat)
